DIMACS2
40 169 310 48 296 281 289 252 246 140 180 132 287 51 213 92 186 118 204 303 245 308 291 240 34 26 21 270 75 194 113 208 123 114 25 7 312 279 61 98 211
p edge 320 320
e 0 96 1.0
e 1 214 1.0
e 2 247 7.0
e 3 27 1.0
e 4 314 1.0
e 5 315 5.0
e 6 173 3.0
e 7 190 40.0
e 8 228 1.0
e 9 169 29.0
e 10 272 1.0
e 11 317 2.0
e 12 3 1.0
e 13 303 31.0
e 14 167 1.0
e 15 198 1.0
e 16 245 31.0
e 17 35 2.0
e 18 236 1.0
e 19 263 1.0
e 20 121 1.0
e 21 259 37.0
e 22 309 1.0
e 23 191 1.0
e 24 272 2.0
e 25 246 4.0
e 26 248 15.0
e 27 171 1.0
e 28 54 1.0
e 29 167 1.0
e 30 85 1.0
e 31 258 1.0
e 32 206 2.0
e 33 144 1.0
e 34 272 19.0
e 35 206 4.0
e 36 43 1.0
e 37 33 1.0
e 38 104 2.0
e 39 235 1.0
e 40 295 2.0
e 41 283 1.0
e 42 157 1.0
e 43 306 2.0
e 44 311 1.0
e 45 89 1.0
e 46 278 1.0
e 47 69 1.0
e 48 279 7.0
e 49 32 1.0
e 50 87 1.0
e 51 36 29.0
e 52 185 1.0
e 53 311 1.0
e 54 40 1.0
e 55 20 5.0
e 56 60 1.0
e 57 50 1.0
e 58 308 41.0
e 59 124 1.0
e 60 108 1.0
e 61 158 1.0
e 62 288 1.0
e 63 120 1.0
e 64 18 2.0
e 65 219 3.0
e 66 201 1.0
e 67 124 1.0
e 68 78 9.0
e 69 112 1.0
e 70 68 4.0
e 71 189 1.0
e 72 61 36.0
e 73 91 2.0
e 74 158 1.0
e 75 10 29.0
e 76 176 1.0
e 77 219 1.0
e 78 26 3.0
e 79 144 1.0
e 80 140 20.0
e 81 7 19.0
e 82 62 1.0
e 83 204 29.0
e 84 159 1.0
e 85 145 1.0
e 86 254 1.0
e 87 179 1.0
e 88 67 2.0
e 89 306 2.0
e 90 50 1.0
e 91 39 1.0
e 92 125 49.0
e 93 239 1.0
e 94 211 48.0
e 95 294 3.0
e 96 6 1.0
e 97 261 11.0
e 98 58 4.0
e 99 279 12.0
e 100 119 1.0
e 101 289 30.0
e 102 16 2.0
e 103 123 14.0
e 104 185 1.0
e 105 158 4.0
e 106 213 22.0
e 107 57 4.0
e 108 197 1.0
e 109 46 2.0
e 110 229 6.0
e 111 61 33.0
e 112 274 1.0
e 113 268 24.0
e 114 306 35.0
e 115 289 45.0
e 116 249 2.0
e 117 39 1.0
e 118 157 27.0
e 119 167 1.0
e 120 159 1.0
e 121 110 5.0
e 122 180 34.0
e 123 140 7.0
e 124 316 1.0
e 125 201 2.0
e 126 106 5.0
e 127 171 1.0
e 128 44 1.0
e 129 276 1.0
e 130 202 2.0
e 131 179 4.0
e 132 107 8.0
e 133 1 1.0
e 134 97 1.0
e 135 162 1.0
e 136 95 2.0
e 137 170 1.0
e 138 99 1.0
e 139 190 11.0
e 140 102 27.0
e 141 207 2.0
e 142 203 1.0
e 143 31 1.0
e 144 259 1.0
e 145 291 28.0
e 146 195 1.0
e 147 180 37.0
e 148 264 2.0
e 149 26 41.0
e 150 203 1.0
e 151 101 2.0
e 152 173 2.0
e 153 46 1.0
e 154 144 2.0
e 155 304 1.0
e 156 264 1.0
e 157 213 5.0
e 158 282 2.0
e 159 295 2.0
e 160 109 1.0
e 161 216 4.0
e 162 58 1.0
e 163 248 8.0
e 164 211 18.0
e 165 198 4.0
e 166 288 1.0
e 167 22 5.0
e 168 255 1.0
e 169 235 48.0
e 170 267 1.0
e 171 160 2.0
e 172 88 2.0
e 173 233 1.0
e 174 226 1.0
e 175 18 3.0
e 176 151 2.0
e 177 35 1.0
e 178 150 1.0
e 179 248 9.0
e 180 279 34.0
e 181 315 1.0
e 182 209 10.0
e 183 285 2.0
e 184 175 1.0
e 185 49 1.0
e 186 172 43.0
e 187 198 1.0
e 188 153 2.0
e 189 19 1.0
e 190 165 1.0
e 191 152 1.0
e 192 208 21.0
e 193 78 4.0
e 194 92 49.0
e 195 46 1.0
e 196 169 37.0
e 197 223 1.0
e 198 30 1.0
e 199 175 1.0
e 200 108 1.0
e 201 90 2.0
e 202 237 1.0
e 203 239 1.0
e 204 287 47.0
e 205 254 1.0
e 206 115 8.0
e 207 129 4.0
e 208 91 47.0
e 209 208 29.0
e 210 174 1.0
e 211 21 1.0
e 212 291 33.0
e 213 153 42.0
e 214 238 1.0
e 215 147 1.0
e 216 252 6.0
e 217 227 3.0
e 218 89 2.0
e 219 158 2.0
e 220 179 3.0
e 221 58 1.0
e 222 36 5.0
e 223 311 1.0
e 224 202 2.0
e 225 194 12.0
e 226 31 1.0
e 227 135 1.0
e 228 269 1.0
e 229 132 32.0
e 230 54 1.0
e 231 49 2.0
e 232 214 2.0
e 233 269 1.0
e 234 102 3.0
e 235 29 5.0
e 236 287 7.0
e 237 46 1.0
e 238 21 11.0
e 239 45 1.0
e 240 300 5.0
e 241 218 2.0
e 242 169 26.0
e 243 26 40.0
e 244 7 12.0
e 245 186 36.0
e 246 218 27.0
e 247 34 46.0
e 248 154 6.0
e 249 141 3.0
e 250 248 8.0
e 251 140 7.0
e 252 151 14.0
e 253 125 1.0
e 254 200 1.0
e 255 174 1.0
e 256 47 1.0
e 257 145 3.0
e 258 23 1.0
e 259 160 1.0
e 260 79 4.0
e 261 229 3.0
e 262 282 1.0
e 263 202 2.0
e 264 136 1.0
e 265 300 1.0
e 266 195 2.0
e 267 76 1.0
e 268 92 48.0
e 269 263 1.0
e 270 22 27.0
e 271 64 1.0
e 272 96 1.0
e 273 277 1.0
e 274 42 1.0
e 275 144 1.0
e 276 280 6.0
e 277 90 1.0
e 278 317 1.0
e 279 152 38.0
e 280 51 27.0
e 281 73 22.0
e 282 83 2.0
e 283 55 2.0
e 284 237 1.0
e 285 180 41.0
e 286 167 2.0
e 287 305 32.0
e 288 45 1.0
e 289 5 42.0
e 290 289 20.0
e 291 140 49.0
e 292 85 2.0
e 293 271 1.0
e 294 248 3.0
e 295 147 2.0
e 296 133 26.0
e 297 281 37.0
e 298 43 1.0
e 299 72 2.0
e 300 291 26.0
e 301 162 1.0
e 302 6 1.0
e 303 135 43.0
e 304 275 1.0
e 305 164 2.0
e 306 11 3.0
e 307 190 4.0
e 308 211 14.0
e 309 222 2.0
e 310 162 15.0
e 311 234 1.0
e 312 79 26.0
e 313 204 3.0
e 314 69 1.0
e 315 292 1.0
e 316 178 1.0
e 317 298 1.0
e 318 157 1.0
e 319 47 1.0
